\ Model kenken
\ LP format - for model browsing. Use MPS format to capture full model detail.
Minimize
 
Subject To
 V[0,0]: G[0,0,0] + G[0,0,1] + G[0,0,2] + G[0,0,3] + G[0,0,4] + G[0,0,5]
   = 1
 V[0,1]: G[0,1,0] + G[0,1,1] + G[0,1,2] + G[0,1,3] + G[0,1,4] + G[0,1,5]
   = 1
 V[0,2]: G[0,2,0] + G[0,2,1] + G[0,2,2] + G[0,2,3] + G[0,2,4] + G[0,2,5]
   = 1
 V[0,3]: G[0,3,0] + G[0,3,1] + G[0,3,2] + G[0,3,3] + G[0,3,4] + G[0,3,5]
   = 1
 V[0,4]: G[0,4,0] + G[0,4,1] + G[0,4,2] + G[0,4,3] + G[0,4,4] + G[0,4,5]
   = 1
 V[0,5]: G[0,5,0] + G[0,5,1] + G[0,5,2] + G[0,5,3] + G[0,5,4] + G[0,5,5]
   = 1
 V[1,0]: G[1,0,0] + G[1,0,1] + G[1,0,2] + G[1,0,3] + G[1,0,4] + G[1,0,5]
   = 1
 V[1,1]: G[1,1,0] + G[1,1,1] + G[1,1,2] + G[1,1,3] + G[1,1,4] + G[1,1,5]
   = 1
 V[1,2]: G[1,2,0] + G[1,2,1] + G[1,2,2] + G[1,2,3] + G[1,2,4] + G[1,2,5]
   = 1
 V[1,3]: G[1,3,0] + G[1,3,1] + G[1,3,2] + G[1,3,3] + G[1,3,4] + G[1,3,5]
   = 1
 V[1,4]: G[1,4,0] + G[1,4,1] + G[1,4,2] + G[1,4,3] + G[1,4,4] + G[1,4,5]
   = 1
 V[1,5]: G[1,5,0] + G[1,5,1] + G[1,5,2] + G[1,5,3] + G[1,5,4] + G[1,5,5]
   = 1
 V[2,0]: G[2,0,0] + G[2,0,1] + G[2,0,2] + G[2,0,3] + G[2,0,4] + G[2,0,5]
   = 1
 V[2,1]: G[2,1,0] + G[2,1,1] + G[2,1,2] + G[2,1,3] + G[2,1,4] + G[2,1,5]
   = 1
 V[2,2]: G[2,2,0] + G[2,2,1] + G[2,2,2] + G[2,2,3] + G[2,2,4] + G[2,2,5]
   = 1
 V[2,3]: G[2,3,0] + G[2,3,1] + G[2,3,2] + G[2,3,3] + G[2,3,4] + G[2,3,5]
   = 1
 V[2,4]: G[2,4,0] + G[2,4,1] + G[2,4,2] + G[2,4,3] + G[2,4,4] + G[2,4,5]
   = 1
 V[2,5]: G[2,5,0] + G[2,5,1] + G[2,5,2] + G[2,5,3] + G[2,5,4] + G[2,5,5]
   = 1
 V[3,0]: G[3,0,0] + G[3,0,1] + G[3,0,2] + G[3,0,3] + G[3,0,4] + G[3,0,5]
   = 1
 V[3,1]: G[3,1,0] + G[3,1,1] + G[3,1,2] + G[3,1,3] + G[3,1,4] + G[3,1,5]
   = 1
 V[3,2]: G[3,2,0] + G[3,2,1] + G[3,2,2] + G[3,2,3] + G[3,2,4] + G[3,2,5]
   = 1
 V[3,3]: G[3,3,0] + G[3,3,1] + G[3,3,2] + G[3,3,3] + G[3,3,4] + G[3,3,5]
   = 1
 V[3,4]: G[3,4,0] + G[3,4,1] + G[3,4,2] + G[3,4,3] + G[3,4,4] + G[3,4,5]
   = 1
 V[3,5]: G[3,5,0] + G[3,5,1] + G[3,5,2] + G[3,5,3] + G[3,5,4] + G[3,5,5]
   = 1
 V[4,0]: G[4,0,0] + G[4,0,1] + G[4,0,2] + G[4,0,3] + G[4,0,4] + G[4,0,5]
   = 1
 V[4,1]: G[4,1,0] + G[4,1,1] + G[4,1,2] + G[4,1,3] + G[4,1,4] + G[4,1,5]
   = 1
 V[4,2]: G[4,2,0] + G[4,2,1] + G[4,2,2] + G[4,2,3] + G[4,2,4] + G[4,2,5]
   = 1
 V[4,3]: G[4,3,0] + G[4,3,1] + G[4,3,2] + G[4,3,3] + G[4,3,4] + G[4,3,5]
   = 1
 V[4,4]: G[4,4,0] + G[4,4,1] + G[4,4,2] + G[4,4,3] + G[4,4,4] + G[4,4,5]
   = 1
 V[4,5]: G[4,5,0] + G[4,5,1] + G[4,5,2] + G[4,5,3] + G[4,5,4] + G[4,5,5]
   = 1
 V[5,0]: G[5,0,0] + G[5,0,1] + G[5,0,2] + G[5,0,3] + G[5,0,4] + G[5,0,5]
   = 1
 V[5,1]: G[5,1,0] + G[5,1,1] + G[5,1,2] + G[5,1,3] + G[5,1,4] + G[5,1,5]
   = 1
 V[5,2]: G[5,2,0] + G[5,2,1] + G[5,2,2] + G[5,2,3] + G[5,2,4] + G[5,2,5]
   = 1
 V[5,3]: G[5,3,0] + G[5,3,1] + G[5,3,2] + G[5,3,3] + G[5,3,4] + G[5,3,5]
   = 1
 V[5,4]: G[5,4,0] + G[5,4,1] + G[5,4,2] + G[5,4,3] + G[5,4,4] + G[5,4,5]
   = 1
 V[5,5]: G[5,5,0] + G[5,5,1] + G[5,5,2] + G[5,5,3] + G[5,5,4] + G[5,5,5]
   = 1
 R[0,0]: G[0,0,0] + G[0,1,0] + G[0,2,0] + G[0,3,0] + G[0,4,0] + G[0,5,0]
   = 1
 R[0,1]: G[0,0,1] + G[0,1,1] + G[0,2,1] + G[0,3,1] + G[0,4,1] + G[0,5,1]
   = 1
 R[0,2]: G[0,0,2] + G[0,1,2] + G[0,2,2] + G[0,3,2] + G[0,4,2] + G[0,5,2]
   = 1
 R[0,3]: G[0,0,3] + G[0,1,3] + G[0,2,3] + G[0,3,3] + G[0,4,3] + G[0,5,3]
   = 1
 R[0,4]: G[0,0,4] + G[0,1,4] + G[0,2,4] + G[0,3,4] + G[0,4,4] + G[0,5,4]
   = 1
 R[0,5]: G[0,0,5] + G[0,1,5] + G[0,2,5] + G[0,3,5] + G[0,4,5] + G[0,5,5]
   = 1
 R[1,0]: G[1,0,0] + G[1,1,0] + G[1,2,0] + G[1,3,0] + G[1,4,0] + G[1,5,0]
   = 1
 R[1,1]: G[1,0,1] + G[1,1,1] + G[1,2,1] + G[1,3,1] + G[1,4,1] + G[1,5,1]
   = 1
 R[1,2]: G[1,0,2] + G[1,1,2] + G[1,2,2] + G[1,3,2] + G[1,4,2] + G[1,5,2]
   = 1
 R[1,3]: G[1,0,3] + G[1,1,3] + G[1,2,3] + G[1,3,3] + G[1,4,3] + G[1,5,3]
   = 1
 R[1,4]: G[1,0,4] + G[1,1,4] + G[1,2,4] + G[1,3,4] + G[1,4,4] + G[1,5,4]
   = 1
 R[1,5]: G[1,0,5] + G[1,1,5] + G[1,2,5] + G[1,3,5] + G[1,4,5] + G[1,5,5]
   = 1
 R[2,0]: G[2,0,0] + G[2,1,0] + G[2,2,0] + G[2,3,0] + G[2,4,0] + G[2,5,0]
   = 1
 R[2,1]: G[2,0,1] + G[2,1,1] + G[2,2,1] + G[2,3,1] + G[2,4,1] + G[2,5,1]
   = 1
 R[2,2]: G[2,0,2] + G[2,1,2] + G[2,2,2] + G[2,3,2] + G[2,4,2] + G[2,5,2]
   = 1
 R[2,3]: G[2,0,3] + G[2,1,3] + G[2,2,3] + G[2,3,3] + G[2,4,3] + G[2,5,3]
   = 1
 R[2,4]: G[2,0,4] + G[2,1,4] + G[2,2,4] + G[2,3,4] + G[2,4,4] + G[2,5,4]
   = 1
 R[2,5]: G[2,0,5] + G[2,1,5] + G[2,2,5] + G[2,3,5] + G[2,4,5] + G[2,5,5]
   = 1
 R[3,0]: G[3,0,0] + G[3,1,0] + G[3,2,0] + G[3,3,0] + G[3,4,0] + G[3,5,0]
   = 1
 R[3,1]: G[3,0,1] + G[3,1,1] + G[3,2,1] + G[3,3,1] + G[3,4,1] + G[3,5,1]
   = 1
 R[3,2]: G[3,0,2] + G[3,1,2] + G[3,2,2] + G[3,3,2] + G[3,4,2] + G[3,5,2]
   = 1
 R[3,3]: G[3,0,3] + G[3,1,3] + G[3,2,3] + G[3,3,3] + G[3,4,3] + G[3,5,3]
   = 1
 R[3,4]: G[3,0,4] + G[3,1,4] + G[3,2,4] + G[3,3,4] + G[3,4,4] + G[3,5,4]
   = 1
 R[3,5]: G[3,0,5] + G[3,1,5] + G[3,2,5] + G[3,3,5] + G[3,4,5] + G[3,5,5]
   = 1
 R[4,0]: G[4,0,0] + G[4,1,0] + G[4,2,0] + G[4,3,0] + G[4,4,0] + G[4,5,0]
   = 1
 R[4,1]: G[4,0,1] + G[4,1,1] + G[4,2,1] + G[4,3,1] + G[4,4,1] + G[4,5,1]
   = 1
 R[4,2]: G[4,0,2] + G[4,1,2] + G[4,2,2] + G[4,3,2] + G[4,4,2] + G[4,5,2]
   = 1
 R[4,3]: G[4,0,3] + G[4,1,3] + G[4,2,3] + G[4,3,3] + G[4,4,3] + G[4,5,3]
   = 1
 R[4,4]: G[4,0,4] + G[4,1,4] + G[4,2,4] + G[4,3,4] + G[4,4,4] + G[4,5,4]
   = 1
 R[4,5]: G[4,0,5] + G[4,1,5] + G[4,2,5] + G[4,3,5] + G[4,4,5] + G[4,5,5]
   = 1
 R[5,0]: G[5,0,0] + G[5,1,0] + G[5,2,0] + G[5,3,0] + G[5,4,0] + G[5,5,0]
   = 1
 R[5,1]: G[5,0,1] + G[5,1,1] + G[5,2,1] + G[5,3,1] + G[5,4,1] + G[5,5,1]
   = 1
 R[5,2]: G[5,0,2] + G[5,1,2] + G[5,2,2] + G[5,3,2] + G[5,4,2] + G[5,5,2]
   = 1
 R[5,3]: G[5,0,3] + G[5,1,3] + G[5,2,3] + G[5,3,3] + G[5,4,3] + G[5,5,3]
   = 1
 R[5,4]: G[5,0,4] + G[5,1,4] + G[5,2,4] + G[5,3,4] + G[5,4,4] + G[5,5,4]
   = 1
 R[5,5]: G[5,0,5] + G[5,1,5] + G[5,2,5] + G[5,3,5] + G[5,4,5] + G[5,5,5]
   = 1
 C[0,0]: G[0,0,0] + G[1,0,0] + G[2,0,0] + G[3,0,0] + G[4,0,0] + G[5,0,0]
   = 1
 C[0,1]: G[0,0,1] + G[1,0,1] + G[2,0,1] + G[3,0,1] + G[4,0,1] + G[5,0,1]
   = 1
 C[0,2]: G[0,0,2] + G[1,0,2] + G[2,0,2] + G[3,0,2] + G[4,0,2] + G[5,0,2]
   = 1
 C[0,3]: G[0,0,3] + G[1,0,3] + G[2,0,3] + G[3,0,3] + G[4,0,3] + G[5,0,3]
   = 1
 C[0,4]: G[0,0,4] + G[1,0,4] + G[2,0,4] + G[3,0,4] + G[4,0,4] + G[5,0,4]
   = 1
 C[0,5]: G[0,0,5] + G[1,0,5] + G[2,0,5] + G[3,0,5] + G[4,0,5] + G[5,0,5]
   = 1
 C[1,0]: G[0,1,0] + G[1,1,0] + G[2,1,0] + G[3,1,0] + G[4,1,0] + G[5,1,0]
   = 1
 C[1,1]: G[0,1,1] + G[1,1,1] + G[2,1,1] + G[3,1,1] + G[4,1,1] + G[5,1,1]
   = 1
 C[1,2]: G[0,1,2] + G[1,1,2] + G[2,1,2] + G[3,1,2] + G[4,1,2] + G[5,1,2]
   = 1
 C[1,3]: G[0,1,3] + G[1,1,3] + G[2,1,3] + G[3,1,3] + G[4,1,3] + G[5,1,3]
   = 1
 C[1,4]: G[0,1,4] + G[1,1,4] + G[2,1,4] + G[3,1,4] + G[4,1,4] + G[5,1,4]
   = 1
 C[1,5]: G[0,1,5] + G[1,1,5] + G[2,1,5] + G[3,1,5] + G[4,1,5] + G[5,1,5]
   = 1
 C[2,0]: G[0,2,0] + G[1,2,0] + G[2,2,0] + G[3,2,0] + G[4,2,0] + G[5,2,0]
   = 1
 C[2,1]: G[0,2,1] + G[1,2,1] + G[2,2,1] + G[3,2,1] + G[4,2,1] + G[5,2,1]
   = 1
 C[2,2]: G[0,2,2] + G[1,2,2] + G[2,2,2] + G[3,2,2] + G[4,2,2] + G[5,2,2]
   = 1
 C[2,3]: G[0,2,3] + G[1,2,3] + G[2,2,3] + G[3,2,3] + G[4,2,3] + G[5,2,3]
   = 1
 C[2,4]: G[0,2,4] + G[1,2,4] + G[2,2,4] + G[3,2,4] + G[4,2,4] + G[5,2,4]
   = 1
 C[2,5]: G[0,2,5] + G[1,2,5] + G[2,2,5] + G[3,2,5] + G[4,2,5] + G[5,2,5]
   = 1
 C[3,0]: G[0,3,0] + G[1,3,0] + G[2,3,0] + G[3,3,0] + G[4,3,0] + G[5,3,0]
   = 1
 C[3,1]: G[0,3,1] + G[1,3,1] + G[2,3,1] + G[3,3,1] + G[4,3,1] + G[5,3,1]
   = 1
 C[3,2]: G[0,3,2] + G[1,3,2] + G[2,3,2] + G[3,3,2] + G[4,3,2] + G[5,3,2]
   = 1
 C[3,3]: G[0,3,3] + G[1,3,3] + G[2,3,3] + G[3,3,3] + G[4,3,3] + G[5,3,3]
   = 1
 C[3,4]: G[0,3,4] + G[1,3,4] + G[2,3,4] + G[3,3,4] + G[4,3,4] + G[5,3,4]
   = 1
 C[3,5]: G[0,3,5] + G[1,3,5] + G[2,3,5] + G[3,3,5] + G[4,3,5] + G[5,3,5]
   = 1
 C[4,0]: G[0,4,0] + G[1,4,0] + G[2,4,0] + G[3,4,0] + G[4,4,0] + G[5,4,0]
   = 1
 C[4,1]: G[0,4,1] + G[1,4,1] + G[2,4,1] + G[3,4,1] + G[4,4,1] + G[5,4,1]
   = 1
 C[4,2]: G[0,4,2] + G[1,4,2] + G[2,4,2] + G[3,4,2] + G[4,4,2] + G[5,4,2]
   = 1
 C[4,3]: G[0,4,3] + G[1,4,3] + G[2,4,3] + G[3,4,3] + G[4,4,3] + G[5,4,3]
   = 1
 C[4,4]: G[0,4,4] + G[1,4,4] + G[2,4,4] + G[3,4,4] + G[4,4,4] + G[5,4,4]
   = 1
 C[4,5]: G[0,4,5] + G[1,4,5] + G[2,4,5] + G[3,4,5] + G[4,4,5] + G[5,4,5]
   = 1
 C[5,0]: G[0,5,0] + G[1,5,0] + G[2,5,0] + G[3,5,0] + G[4,5,0] + G[5,5,0]
   = 1
 C[5,1]: G[0,5,1] + G[1,5,1] + G[2,5,1] + G[3,5,1] + G[4,5,1] + G[5,5,1]
   = 1
 C[5,2]: G[0,5,2] + G[1,5,2] + G[2,5,2] + G[3,5,2] + G[4,5,2] + G[5,5,2]
   = 1
 C[5,3]: G[0,5,3] + G[1,5,3] + G[2,5,3] + G[3,5,3] + G[4,5,3] + G[5,5,3]
   = 1
 C[5,4]: G[0,5,4] + G[1,5,4] + G[2,5,4] + G[3,5,4] + G[4,5,4] + G[5,5,4]
   = 1
 C[5,5]: G[0,5,5] + G[1,5,5] + G[2,5,5] + G[3,5,5] + G[4,5,5] + G[5,5,5]
   = 1
 R108: C216 + C217 + C218 + C219 + C220 + C221 + C222 + C223 + C224 + C225
   + C226 + C227 = 1
 R109: C228 + C229 = 1
 R110: C230 + C231 + C232 + C233 + C234 + C235 = 1
 R111: C236 + C237 + C238 + C239 + C240 + C241 + C242 + C243 + C244 = 1
 R112: C245 + C246 = 1
 R113: C247 + C248 + C249 + C250 + C251 + C252 + C253 + C254 = 1
 R114: C255 + C256 + C257 + C258 + C259 + C260 = 1
 R115: C261 + C262 + C263 + C264 + C265 + C266 + C267 + C268 = 1
 R116: C269 + C270 + C271 + C272 + C273 + C274 = 1
 R117: C275 + C276 + C277 + C278 + C279 = 1
 R118: C280 + C281 = 1
 R119: C282 + C283 + C284 + C285 + C286 + C287 = 1
 R120: C288 + C289 + C290 + C291 + C292 + C293 = 1
 R121: C294 + C295 + C296 + C297 + C298 + C299 = 1
 R122: C300 + C301 + C302 + C303 + C304 + C305 + C306 + C307 = 1
 R123: C308 + C309 + C310 + C311 + C312 + C313 + C314 + C315 = 1
 R124: C316 + C317 + C318 + C319 + C320 + C321 = 1
Bounds
Binaries
 G[0,0,0] G[0,0,1] G[0,0,2] G[0,0,3] G[0,0,4] G[0,0,5] G[0,1,0] G[0,1,1]
 G[0,1,2] G[0,1,3] G[0,1,4] G[0,1,5] G[0,2,0] G[0,2,1] G[0,2,2] G[0,2,3]
 G[0,2,4] G[0,2,5] G[0,3,0] G[0,3,1] G[0,3,2] G[0,3,3] G[0,3,4] G[0,3,5]
 G[0,4,0] G[0,4,1] G[0,4,2] G[0,4,3] G[0,4,4] G[0,4,5] G[0,5,0] G[0,5,1]
 G[0,5,2] G[0,5,3] G[0,5,4] G[0,5,5] G[1,0,0] G[1,0,1] G[1,0,2] G[1,0,3]
 G[1,0,4] G[1,0,5] G[1,1,0] G[1,1,1] G[1,1,2] G[1,1,3] G[1,1,4] G[1,1,5]
 G[1,2,0] G[1,2,1] G[1,2,2] G[1,2,3] G[1,2,4] G[1,2,5] G[1,3,0] G[1,3,1]
 G[1,3,2] G[1,3,3] G[1,3,4] G[1,3,5] G[1,4,0] G[1,4,1] G[1,4,2] G[1,4,3]
 G[1,4,4] G[1,4,5] G[1,5,0] G[1,5,1] G[1,5,2] G[1,5,3] G[1,5,4] G[1,5,5]
 G[2,0,0] G[2,0,1] G[2,0,2] G[2,0,3] G[2,0,4] G[2,0,5] G[2,1,0] G[2,1,1]
 G[2,1,2] G[2,1,3] G[2,1,4] G[2,1,5] G[2,2,0] G[2,2,1] G[2,2,2] G[2,2,3]
 G[2,2,4] G[2,2,5] G[2,3,0] G[2,3,1] G[2,3,2] G[2,3,3] G[2,3,4] G[2,3,5]
 G[2,4,0] G[2,4,1] G[2,4,2] G[2,4,3] G[2,4,4] G[2,4,5] G[2,5,0] G[2,5,1]
 G[2,5,2] G[2,5,3] G[2,5,4] G[2,5,5] G[3,0,0] G[3,0,1] G[3,0,2] G[3,0,3]
 G[3,0,4] G[3,0,5] G[3,1,0] G[3,1,1] G[3,1,2] G[3,1,3] G[3,1,4] G[3,1,5]
 G[3,2,0] G[3,2,1] G[3,2,2] G[3,2,3] G[3,2,4] G[3,2,5] G[3,3,0] G[3,3,1]
 G[3,3,2] G[3,3,3] G[3,3,4] G[3,3,5] G[3,4,0] G[3,4,1] G[3,4,2] G[3,4,3]
 G[3,4,4] G[3,4,5] G[3,5,0] G[3,5,1] G[3,5,2] G[3,5,3] G[3,5,4] G[3,5,5]
 G[4,0,0] G[4,0,1] G[4,0,2] G[4,0,3] G[4,0,4] G[4,0,5] G[4,1,0] G[4,1,1]
 G[4,1,2] G[4,1,3] G[4,1,4] G[4,1,5] G[4,2,0] G[4,2,1] G[4,2,2] G[4,2,3]
 G[4,2,4] G[4,2,5] G[4,3,0] G[4,3,1] G[4,3,2] G[4,3,3] G[4,3,4] G[4,3,5]
 G[4,4,0] G[4,4,1] G[4,4,2] G[4,4,3] G[4,4,4] G[4,4,5] G[4,5,0] G[4,5,1]
 G[4,5,2] G[4,5,3] G[4,5,4] G[4,5,5] G[5,0,0] G[5,0,1] G[5,0,2] G[5,0,3]
 G[5,0,4] G[5,0,5] G[5,1,0] G[5,1,1] G[5,1,2] G[5,1,3] G[5,1,4] G[5,1,5]
 G[5,2,0] G[5,2,1] G[5,2,2] G[5,2,3] G[5,2,4] G[5,2,5] G[5,3,0] G[5,3,1]
 G[5,3,2] G[5,3,3] G[5,3,4] G[5,3,5] G[5,4,0] G[5,4,1] G[5,4,2] G[5,4,3]
 G[5,4,4] G[5,4,5] G[5,5,0] G[5,5,1] G[5,5,2] G[5,5,3] G[5,5,4] G[5,5,5]
 C216 C217 C218 C219 C220 C221 C222 C223 C224 C225 C226 C227 C228 C229 C230
 C231 C232 C233 C234 C235 C236 C237 C238 C239 C240 C241 C242 C243 C244 C245
 C246 C247 C248 C249 C250 C251 C252 C253 C254 C255 C256 C257 C258 C259 C260
 C261 C262 C263 C264 C265 C266 C267 C268 C269 C270 C271 C272 C273 C274 C275
 C276 C277 C278 C279 C280 C281 C282 C283 C284 C285 C286 C287 C288 C289 C290
 C291 C292 C293 C294 C295 C296 C297 C298 C299 C300 C301 C302 C303 C304 C305
 C306 C307 C308 C309 C310 C311 C312 C313 C314 C315 C316 C317 C318 C319 C320
 C321
General Constraints
 GC0: C216 = AND ( G[0,0,1] , G[0,1,4] , G[1,1,5] )
 GC1: C217 = AND ( G[0,0,1] , G[0,1,5] , G[1,1,4] )
 GC2: C218 = AND ( G[0,0,2] , G[0,1,3] , G[1,1,4] )
 GC3: C219 = AND ( G[0,0,2] , G[0,1,4] , G[1,1,3] )
 GC4: C220 = AND ( G[0,0,3] , G[0,1,2] , G[1,1,4] )
 GC5: C221 = AND ( G[0,0,3] , G[0,1,4] , G[1,1,2] )
 GC6: C222 = AND ( G[0,0,4] , G[0,1,1] , G[1,1,5] )
 GC7: C223 = AND ( G[0,0,4] , G[0,1,2] , G[1,1,3] )
 GC8: C224 = AND ( G[0,0,4] , G[0,1,3] , G[1,1,2] )
 GC9: C225 = AND ( G[0,0,4] , G[0,1,5] , G[1,1,1] )
 GC10: C226 = AND ( G[0,0,5] , G[0,1,1] , G[1,1,4] )
 GC11: C227 = AND ( G[0,0,5] , G[0,1,4] , G[1,1,1] )
 GC12: C228 = AND ( G[0,2,1] , G[1,2,4] )
 GC13: C229 = AND ( G[0,2,4] , G[1,2,1] )
 GC14: C230 = AND ( G[0,3,0] , G[1,3,5] )
 GC15: C231 = AND ( G[0,3,1] , G[1,3,4] )
 GC16: C232 = AND ( G[0,3,2] , G[1,3,3] )
 GC17: C233 = AND ( G[0,3,3] , G[1,3,2] )
 GC18: C234 = AND ( G[0,3,4] , G[1,3,1] )
 GC19: C235 = AND ( G[0,3,5] , G[1,3,0] )
 GC20: C236 = AND ( G[0,4,1] , G[0,5,3] , G[1,4,5] )
 GC21: C237 = AND ( G[0,4,1] , G[0,5,5] , G[1,4,3] )
 GC22: C238 = AND ( G[0,4,2] , G[0,5,3] , G[1,4,3] )
 GC23: C239 = AND ( G[0,4,3] , G[0,5,1] , G[1,4,5] )
 GC24: C240 = AND ( G[0,4,3] , G[0,5,2] , G[1,4,3] )
 GC25: C241 = AND ( G[0,4,3] , G[0,5,3] , G[1,4,2] )
 GC26: C242 = AND ( G[0,4,3] , G[0,5,5] , G[1,4,1] )
 GC27: C243 = AND ( G[0,4,5] , G[0,5,1] , G[1,4,3] )
 GC28: C244 = AND ( G[0,4,5] , G[0,5,3] , G[1,4,1] )
 GC29: C245 = AND ( G[1,0,0] , G[2,0,1] )
 GC30: C246 = AND ( G[1,0,1] , G[2,0,0] )
 GC31: C247 = AND ( G[2,1,0] , G[3,1,2] )
 GC32: C248 = AND ( G[2,1,1] , G[3,1,3] )
 GC33: C249 = AND ( G[2,1,2] , G[3,1,0] )
 GC34: C250 = AND ( G[2,1,2] , G[3,1,4] )
 GC35: C251 = AND ( G[2,1,3] , G[3,1,1] )
 GC36: C252 = AND ( G[2,1,3] , G[3,1,5] )
 GC37: C253 = AND ( G[2,1,4] , G[3,1,2] )
 GC38: C254 = AND ( G[2,1,5] , G[3,1,3] )
 GC39: C255 = AND ( G[2,2,0] , G[3,2,3] )
 GC40: C256 = AND ( G[2,2,1] , G[3,2,4] )
 GC41: C257 = AND ( G[2,2,2] , G[3,2,5] )
 GC42: C258 = AND ( G[2,2,3] , G[3,2,0] )
 GC43: C259 = AND ( G[2,2,4] , G[3,2,1] )
 GC44: C260 = AND ( G[2,2,5] , G[3,2,2] )
 GC45: C261 = AND ( G[2,3,0] , G[3,3,2] )
 GC46: C262 = AND ( G[2,3,1] , G[3,3,3] )
 GC47: C263 = AND ( G[2,3,2] , G[3,3,0] )
 GC48: C264 = AND ( G[2,3,2] , G[3,3,4] )
 GC49: C265 = AND ( G[2,3,3] , G[3,3,1] )
 GC50: C266 = AND ( G[2,3,3] , G[3,3,5] )
 GC51: C267 = AND ( G[2,3,4] , G[3,3,2] )
 GC52: C268 = AND ( G[2,3,5] , G[3,3,3] )
 GC53: C269 = AND ( G[2,4,0] , G[3,4,1] )
 GC54: C270 = AND ( G[2,4,1] , G[3,4,0] )
 GC55: C271 = AND ( G[2,4,1] , G[3,4,3] )
 GC56: C272 = AND ( G[2,4,2] , G[3,4,5] )
 GC57: C273 = AND ( G[2,4,3] , G[3,4,1] )
 GC58: C274 = AND ( G[2,4,5] , G[3,4,2] )
 GC59: C275 = AND ( G[1,5,1] , G[2,5,5] )
 GC60: C276 = AND ( G[1,5,2] , G[2,5,4] )
 GC61: C277 = AND ( G[1,5,3] , G[2,5,3] )
 GC62: C278 = AND ( G[1,5,4] , G[2,5,2] )
 GC63: C279 = AND ( G[1,5,5] , G[2,5,1] )
 GC64: C280 = AND ( G[3,0,4] , G[4,0,5] )
 GC65: C281 = AND ( G[3,0,5] , G[4,0,4] )
 GC66: C282 = AND ( G[4,1,0] , G[4,2,3] )
 GC67: C283 = AND ( G[4,1,1] , G[4,2,4] )
 GC68: C284 = AND ( G[4,1,2] , G[4,2,5] )
 GC69: C285 = AND ( G[4,1,3] , G[4,2,0] )
 GC70: C286 = AND ( G[4,1,4] , G[4,2,1] )
 GC71: C287 = AND ( G[4,1,5] , G[4,2,2] )
 GC72: C288 = AND ( G[4,3,0] , G[4,4,1] )
 GC73: C289 = AND ( G[4,3,1] , G[4,4,0] )
 GC74: C290 = AND ( G[4,3,1] , G[4,4,3] )
 GC75: C291 = AND ( G[4,3,2] , G[4,4,5] )
 GC76: C292 = AND ( G[4,3,3] , G[4,4,1] )
 GC77: C293 = AND ( G[4,3,5] , G[4,4,2] )
 GC78: C294 = AND ( G[3,5,0] , G[4,5,3] )
 GC79: C295 = AND ( G[3,5,1] , G[4,5,4] )
 GC80: C296 = AND ( G[3,5,2] , G[4,5,5] )
 GC81: C297 = AND ( G[3,5,3] , G[4,5,0] )
 GC82: C298 = AND ( G[3,5,4] , G[4,5,1] )
 GC83: C299 = AND ( G[3,5,5] , G[4,5,2] )
 GC84: C300 = AND ( G[5,0,0] , G[5,1,2] )
 GC85: C301 = AND ( G[5,0,1] , G[5,1,3] )
 GC86: C302 = AND ( G[5,0,2] , G[5,1,0] )
 GC87: C303 = AND ( G[5,0,2] , G[5,1,4] )
 GC88: C304 = AND ( G[5,0,3] , G[5,1,1] )
 GC89: C305 = AND ( G[5,0,3] , G[5,1,5] )
 GC90: C306 = AND ( G[5,0,4] , G[5,1,2] )
 GC91: C307 = AND ( G[5,0,5] , G[5,1,3] )
 GC92: C308 = AND ( G[5,2,0] , G[5,3,2] )
 GC93: C309 = AND ( G[5,2,1] , G[5,3,3] )
 GC94: C310 = AND ( G[5,2,2] , G[5,3,0] )
 GC95: C311 = AND ( G[5,2,2] , G[5,3,4] )
 GC96: C312 = AND ( G[5,2,3] , G[5,3,1] )
 GC97: C313 = AND ( G[5,2,3] , G[5,3,5] )
 GC98: C314 = AND ( G[5,2,4] , G[5,3,2] )
 GC99: C315 = AND ( G[5,2,5] , G[5,3,3] )
 GC100: C316 = AND ( G[5,4,0] , G[5,5,3] )
 GC101: C317 = AND ( G[5,4,1] , G[5,5,4] )
 GC102: C318 = AND ( G[5,4,2] , G[5,5,5] )
 GC103: C319 = AND ( G[5,4,3] , G[5,5,0] )
 GC104: C320 = AND ( G[5,4,4] , G[5,5,1] )
 GC105: C321 = AND ( G[5,4,5] , G[5,5,2] )
End
